Welcome to the CBC MILP Solver 
Version: 2.10.7 
Build Date: Feb 14 2022 

command line - cbc inputs/new_no_tr/order/triang6_2_tiers_input.lp sec 1800 solve solu solutions/new_no_tr/triang6_2_tiers_input.lp (default strategy 1)
seconds was changed from 1e+100 to 1800
Continuous objective value is 238.471 - 0.08 seconds
Cgl0002I 81 variables fixed
Cgl0003I 0 fixed, 12 tightened bounds, 318 strengthened rows, 0 substitutions
Cgl0003I 0 fixed, 10 tightened bounds, 109 strengthened rows, 0 substitutions
Cgl0003I 0 fixed, 9 tightened bounds, 61 strengthened rows, 0 substitutions
Cgl0003I 0 fixed, 2 tightened bounds, 7 strengthened rows, 0 substitutions
Cgl0003I 0 fixed, 1 tightened bounds, 14 strengthened rows, 0 substitutions
Cgl0003I 0 fixed, 0 tightened bounds, 15 strengthened rows, 0 substitutions
Cgl0003I 0 fixed, 0 tightened bounds, 1 strengthened rows, 0 substitutions
Cgl0003I 0 fixed, 0 tightened bounds, 4 strengthened rows, 0 substitutions
Cgl0003I 0 fixed, 0 tightened bounds, 4 strengthened rows, 0 substitutions
Cgl0004I processed model has 1394 rows, 493 columns (493 integer (471 of which binary)) and 4717 elements
Cutoff increment increased from 1e-05 to 0.9999
Cbc0045I 1 integer variables out of 493 objects (493 integer) have cost of 1 - high priority
Cbc0045I branch on satisfied Y create fake objective Y random cost Y
Cbc0038I Initial state - 295 integers unsatisfied sum - 69.356
Cbc0038I Pass   1: suminf.   46.24509 (286) obj. 308.868 iterations 425
Cbc0038I Pass   2: suminf.   40.92916 (277) obj. 311.797 iterations 181
Cbc0038I Pass   3: suminf.   40.08592 (277) obj. 311.047 iterations 27
Cbc0038I Pass   4: suminf.   40.27946 (238) obj. 320.61 iterations 90
Cbc0038I Pass   5: suminf.   40.93708 (247) obj. 320.668 iterations 61
Cbc0038I Pass   6: suminf.   42.14250 (257) obj. 321.156 iterations 93
Cbc0038I Pass   7: suminf.   39.41761 (232) obj. 324.634 iterations 113
Cbc0038I Pass   8: suminf.   36.83003 (196) obj. 327.017 iterations 99
Cbc0038I Pass   9: suminf.   34.03047 (189) obj. 325.621 iterations 52
Cbc0038I Pass  10: suminf.   31.15890 (181) obj. 338.056 iterations 85
Cbc0038I Pass  11: suminf.   30.82290 (192) obj. 360.127 iterations 43
Cbc0038I Pass  12: suminf.   29.49558 (192) obj. 371.491 iterations 59
Cbc0038I Pass  13: suminf.   25.92012 (155) obj. 347.489 iterations 132
Cbc0038I Pass  14: suminf.   26.41873 (156) obj. 361.756 iterations 25
Cbc0038I Pass  15: suminf.   23.99980 (164) obj. 357.914 iterations 75
Cbc0038I Pass  16: suminf.   23.85402 (163) obj. 362.022 iterations 21
Cbc0038I Pass  17: suminf.   22.15964 (163) obj. 364.48 iterations 54
Cbc0038I Pass  18: suminf.   21.32844 (167) obj. 354.899 iterations 69
Cbc0038I Pass  19: suminf.   18.43828 (118) obj. 430.767 iterations 152
Cbc0038I Pass  20: suminf.   16.52049 (114) obj. 443.127 iterations 81
Cbc0038I Pass  21: suminf.    9.33643 (66) obj. 395.411 iterations 302
Cbc0038I Pass  22: suminf.    5.77187 (46) obj. 364 iterations 239
Cbc0038I Pass  23: suminf.    2.49664 (22) obj. 364 iterations 208
Cbc0038I Pass  24: suminf.    2.49664 (22) obj. 364 iterations 8
Cbc0038I Pass  25: suminf.    0.00000 (0) obj. 364 iterations 65
Cbc0038I Solution found of 364
Cbc0038I Cleaned solution of 364
Cbc0038I Before mini branch and bound, 86 integers at bound fixed and 0 continuous
Cbc0038I Full problem 1394 rows 493 columns, reduced to 1221 rows 407 columns - 52 fixed gives 867, 280 - still too large
Cbc0038I Mini branch and bound did not improve solution (0.52 seconds)
Cbc0038I Round again with cutoff of 350.672
Cbc0038I Pass  26: suminf.   46.24509 (286) obj. 308.868 iterations 0
Cbc0038I Pass  27: suminf.   40.92916 (277) obj. 311.797 iterations 191
Cbc0038I Pass  28: suminf.   40.08592 (277) obj. 311.047 iterations 24
Cbc0038I Pass  29: suminf.   40.27946 (238) obj. 320.61 iterations 115
Cbc0038I Pass  30: suminf.   40.93708 (247) obj. 320.668 iterations 69
Cbc0038I Pass  31: suminf.   42.14250 (257) obj. 321.156 iterations 97
Cbc0038I Pass  32: suminf.   39.41761 (232) obj. 324.634 iterations 116
Cbc0038I Pass  33: suminf.   36.83003 (196) obj. 327.017 iterations 90
Cbc0038I Pass  34: suminf.   34.03047 (189) obj. 325.621 iterations 56
Cbc0038I Pass  35: suminf.   31.15890 (181) obj. 338.056 iterations 96
Cbc0038I Pass  36: suminf.   31.26736 (185) obj. 350.672 iterations 24
Cbc0038I Pass  37: suminf.   19.52616 (146) obj. 350.672 iterations 162
Cbc0038I Pass  38: suminf.   17.76584 (140) obj. 350.672 iterations 78
Cbc0038I Pass  39: suminf.   17.37979 (136) obj. 350.672 iterations 37
Cbc0038I Pass  40: suminf.   12.94351 (81) obj. 350.672 iterations 201
Cbc0038I Pass  41: suminf.   11.49029 (95) obj. 350.672 iterations 64
Cbc0038I Pass  42: suminf.   11.23315 (91) obj. 350.672 iterations 7
Cbc0038I Pass  43: suminf.   13.24165 (100) obj. 350.672 iterations 79
Cbc0038I Pass  44: suminf.   13.05276 (111) obj. 350.672 iterations 43
Cbc0038I Pass  45: suminf.   13.45061 (99) obj. 350.672 iterations 74
Cbc0038I Pass  46: suminf.   13.12815 (98) obj. 350.672 iterations 11
Cbc0038I Pass  47: suminf.    5.87612 (82) obj. 350.672 iterations 70
Cbc0038I Pass  48: suminf.    5.30694 (77) obj. 350.672 iterations 25
Cbc0038I Pass  49: suminf.    1.23341 (19) obj. 350.672 iterations 268
Cbc0038I Pass  50: suminf.    1.23341 (19) obj. 350.672 iterations 5
Cbc0038I Pass  51: suminf.    1.24805 (34) obj. 350.672 iterations 98
Cbc0038I Pass  52: suminf.    1.24805 (34) obj. 350.672 iterations 4
Cbc0038I Pass  53: suminf.    2.41948 (31) obj. 350.672 iterations 24
Cbc0038I Pass  54: suminf.    1.71574 (28) obj. 350.672 iterations 5
Cbc0038I Pass  55: suminf.    2.41381 (22) obj. 350.672 iterations 42
Cbc0038I Pass  56: suminf.    2.41381 (22) obj. 350.672 iterations 16
Cbc0038I Pass  57: suminf.    1.87895 (21) obj. 350.672 iterations 42
Cbc0038I Pass  58: suminf.    1.87895 (21) obj. 350.672 iterations 4
Cbc0038I Pass  59: suminf.    5.05489 (78) obj. 350.672 iterations 152
Cbc0038I Pass  60: suminf.    3.53467 (30) obj. 350.672 iterations 65
Cbc0038I Pass  61: suminf.    3.85381 (37) obj. 350.672 iterations 73
Cbc0038I Pass  62: suminf.    3.78478 (37) obj. 350.672 iterations 18
Cbc0038I Pass  63: suminf.    5.30358 (76) obj. 350.672 iterations 404
Cbc0038I Pass  64: suminf.    4.76615 (79) obj. 350.672 iterations 67
Cbc0038I Pass  65: suminf.    4.23796 (60) obj. 350.672 iterations 364
Cbc0038I Pass  66: suminf.    2.48488 (81) obj. 350.672 iterations 121
Cbc0038I Pass  67: suminf.    7.30235 (105) obj. 350.672 iterations 155
Cbc0038I Pass  68: suminf.    6.86226 (103) obj. 350.672 iterations 41
Cbc0038I Pass  69: suminf.    2.90553 (12) obj. 350.672 iterations 150
Cbc0038I Pass  70: suminf.    0.32809 (1) obj. 350.672 iterations 33
Cbc0038I Solution found of 350.672
Cbc0038I Branch and bound needed to clear up 1 general integers
Cbc0038I Full problem 1395 rows 493 columns, reduced to 0 rows 0 columns
Cbc0038I Cleaned solution of 344
Cbc0038I Before mini branch and bound, 72 integers at bound fixed and 0 continuous
Cbc0038I Full problem 1394 rows 493 columns, reduced to 1247 rows 421 columns - 158 fixed gives 283, 88 - ok now
Cbc0038I Full problem 1394 rows 493 columns, reduced to 103 rows 39 columns
Cbc0038I Mini branch and bound improved solution from 344 to 284 (0.85 seconds)
Cbc0038I Round again with cutoff of 274.344
Cbc0038I Pass  71: suminf.   44.57414 (288) obj. 274 iterations 88
Cbc0038I Pass  72: suminf.   42.27870 (288) obj. 274.344 iterations 153
Cbc0038I Pass  73: suminf.   43.00517 (253) obj. 274.344 iterations 166
Cbc0038I Pass  74: suminf.   43.16020 (241) obj. 274.344 iterations 94
Cbc0038I Pass  75: suminf.   42.24413 (257) obj. 274.344 iterations 83
Cbc0038I Pass  76: suminf.   43.30097 (247) obj. 274.344 iterations 28
Cbc0038I Pass  77: suminf.   39.39443 (215) obj. 274.344 iterations 108
Cbc0038I Pass  78: suminf.   40.40636 (213) obj. 274.344 iterations 85
Cbc0038I Pass  79: suminf.   34.21634 (193) obj. 274.344 iterations 129
Cbc0038I Pass  80: suminf.   28.60744 (180) obj. 274.344 iterations 120
Cbc0038I Pass  81: suminf.   24.64838 (163) obj. 274.344 iterations 126
Cbc0038I Pass  82: suminf.   21.54846 (153) obj. 274.344 iterations 100
Cbc0038I Pass  83: suminf.   16.87024 (148) obj. 274.344 iterations 259
Cbc0038I Pass  84: suminf.   13.39097 (121) obj. 274.344 iterations 167
Cbc0038I Pass  85: suminf.   13.33644 (131) obj. 274.344 iterations 66
Cbc0038I Pass  86: suminf.    9.18852 (72) obj. 274.344 iterations 239
Cbc0038I Pass  87: suminf.    7.87809 (89) obj. 274.344 iterations 96
Cbc0038I Pass  88: suminf.   14.60199 (68) obj. 274.344 iterations 225
Cbc0038I Pass  89: suminf.   12.16074 (128) obj. 274.344 iterations 118
Cbc0038I Pass  90: suminf.   10.53112 (66) obj. 274.344 iterations 126
Cbc0038I Pass  91: suminf.    9.82656 (109) obj. 274.344 iterations 75
Cbc0038I Pass  92: suminf.   16.37909 (80) obj. 274.344 iterations 278
Cbc0038I Pass  93: suminf.   10.94498 (76) obj. 274.344 iterations 125
Cbc0038I Pass  94: suminf.    8.84541 (79) obj. 274.344 iterations 80
Cbc0038I Pass  95: suminf.    8.84541 (79) obj. 274.344 iterations 14
Cbc0038I Pass  96: suminf.    7.72254 (61) obj. 274.344 iterations 138
Cbc0038I Pass  97: suminf.    7.28370 (78) obj. 274.344 iterations 60
Cbc0038I Pass  98: suminf.    7.28370 (78) obj. 274.344 iterations 3
Cbc0038I Pass  99: suminf.    8.29718 (43) obj. 274.344 iterations 257
Cbc0038I Pass 100: suminf.    7.26255 (49) obj. 274.344 iterations 37
Cbc0038I Pass 101: suminf.    5.92904 (31) obj. 274.344 iterations 297
Cbc0038I Pass 102: suminf.    5.92904 (31) obj. 274.344 iterations 10
Cbc0038I Pass 103: suminf.    2.00977 (6) obj. 274.344 iterations 83
Cbc0038I Pass 104: suminf.    2.00977 (6) obj. 274.344 iterations 14
Cbc0038I Pass 105: suminf.    2.75780 (6) obj. 274.344 iterations 56
Cbc0038I Pass 106: suminf.   21.67880 (186) obj. 274.344 iterations 414
Cbc0038I Pass 107: suminf.   13.07800 (105) obj. 274.344 iterations 271
Cbc0038I Pass 108: suminf.   11.05670 (114) obj. 274.344 iterations 104
Cbc0038I Pass 109: suminf.    8.96586 (100) obj. 274.344 iterations 83
Cbc0038I Pass 110: suminf.    8.59466 (50) obj. 274.344 iterations 304
Cbc0038I Pass 111: suminf.    4.10981 (28) obj. 274.344 iterations 54
Cbc0038I Pass 112: suminf.    6.20933 (18) obj. 274.344 iterations 105
Cbc0038I Pass 113: suminf.    2.00977 (6) obj. 274.344 iterations 64
Cbc0038I Pass 114: suminf.    2.00977 (6) obj. 274.344 iterations 5
Cbc0038I Pass 115: suminf.    2.75780 (6) obj. 274.344 iterations 40
Cbc0038I Pass 116: suminf.   24.92672 (178) obj. 274.344 iterations 371
Cbc0038I Pass 117: suminf.   11.07701 (55) obj. 274.344 iterations 369
Cbc0038I Pass 118: suminf.    8.44211 (46) obj. 274.344 iterations 46
Cbc0038I Pass 119: suminf.    6.79364 (34) obj. 274.344 iterations 54
Cbc0038I Pass 120: suminf.    2.36691 (11) obj. 274.344 iterations 62
Cbc0038I Pass 121: suminf.    2.36691 (11) obj. 274.344 iterations 4
Cbc0038I Pass 122: suminf.    3.13599 (19) obj. 274.344 iterations 62
Cbc0038I Pass 123: suminf.    3.84750 (19) obj. 274.344 iterations 121
Cbc0038I Pass 124: suminf.    3.50941 (16) obj. 274.344 iterations 67
Cbc0038I Pass 125: suminf.    2.00977 (6) obj. 274.344 iterations 55
Cbc0038I Pass 126: suminf.    2.75780 (6) obj. 274.344 iterations 44
Cbc0038I Pass 127: suminf.   31.27234 (156) obj. 274.344 iterations 346
Cbc0038I Pass 128: suminf.   14.82041 (86) obj. 274.344 iterations 267
Cbc0038I Pass 129: suminf.   11.26761 (88) obj. 274.344 iterations 117
Cbc0038I Pass 130: suminf.    4.80046 (36) obj. 274.344 iterations 331
Cbc0038I Pass 131: suminf.    2.90562 (15) obj. 274.344 iterations 61
Cbc0038I Pass 132: suminf.    5.08395 (17) obj. 274.344 iterations 61
Cbc0038I Pass 133: suminf.    5.07399 (18) obj. 274.344 iterations 16
Cbc0038I Pass 134: suminf.    5.49996 (17) obj. 274.344 iterations 71
Cbc0038I Pass 135: suminf.    2.97860 (18) obj. 274.344 iterations 70
Cbc0038I Pass 136: suminf.    4.94836 (11) obj. 274.344 iterations 67
Cbc0038I Pass 137: suminf.    2.75780 (6) obj. 274.344 iterations 10
Cbc0038I Pass 138: suminf.    2.00977 (6) obj. 274.344 iterations 31
Cbc0038I Pass 139: suminf.   31.84491 (170) obj. 274.344 iterations 390
Cbc0038I Pass 140: suminf.    9.90721 (78) obj. 274.344 iterations 349
Cbc0038I Pass 141: suminf.    6.54333 (65) obj. 274.344 iterations 106
Cbc0038I Pass 142: suminf.    4.12596 (16) obj. 274.344 iterations 181
Cbc0038I Pass 143: suminf.    2.75780 (6) obj. 274.344 iterations 22
Cbc0038I Pass 144: suminf.    2.00977 (6) obj. 274.344 iterations 38
Cbc0038I Pass 145: suminf.   34.38962 (203) obj. 274.344 iterations 438
Cbc0038I Pass 146: suminf.   16.96256 (101) obj. 274.344 iterations 317
Cbc0038I Pass 147: suminf.   14.90383 (92) obj. 274.344 iterations 102
Cbc0038I Pass 148: suminf.   13.99599 (89) obj. 274.344 iterations 88
Cbc0038I Pass 149: suminf.    7.45685 (48) obj. 274.344 iterations 146
Cbc0038I Pass 150: suminf.    5.01020 (44) obj. 274.344 iterations 19
Cbc0038I Pass 151: suminf.    9.93423 (54) obj. 274.344 iterations 108
Cbc0038I Pass 152: suminf.   11.11591 (61) obj. 274.344 iterations 244
Cbc0038I Pass 153: suminf.    9.49331 (57) obj. 274.344 iterations 44
Cbc0038I Pass 154: suminf.    9.09044 (77) obj. 274.344 iterations 296
Cbc0038I Pass 155: suminf.    8.67270 (77) obj. 274.344 iterations 16
Cbc0038I Pass 156: suminf.    8.01651 (39) obj. 274.344 iterations 283
Cbc0038I Pass 157: suminf.    8.01651 (39) obj. 274.344 iterations 15
Cbc0038I Pass 158: suminf.    9.08775 (46) obj. 274.344 iterations 163
Cbc0038I Pass 159: suminf.    9.29629 (47) obj. 274.344 iterations 27
Cbc0038I Pass 160: suminf.    6.96286 (37) obj. 274.344 iterations 118
Cbc0038I Pass 161: suminf.    6.08214 (27) obj. 274.344 iterations 30
Cbc0038I Pass 162: suminf.    6.95368 (40) obj. 274.344 iterations 224
Cbc0038I Pass 163: suminf.    6.84048 (34) obj. 274.344 iterations 62
Cbc0038I Pass 164: suminf.    9.41547 (34) obj. 274.344 iterations 97
Cbc0038I Pass 165: suminf.    9.41547 (34) obj. 274.344 iterations 13
Cbc0038I Pass 166: suminf.    9.06666 (59) obj. 274.344 iterations 305
Cbc0038I Pass 167: suminf.    8.42444 (62) obj. 274.344 iterations 40
Cbc0038I Pass 168: suminf.    8.80240 (51) obj. 274.344 iterations 339
Cbc0038I Pass 169: suminf.    7.74883 (48) obj. 274.344 iterations 62
Cbc0038I Pass 170: suminf.   26.94938 (169) obj. 274.344 iterations 306
Cbc0038I No solution found this major pass
Cbc0038I Before mini branch and bound, 19 integers at bound fixed and 0 continuous
Cbc0038I Full problem 1394 rows 493 columns, reduced to 1356 rows 474 columns - 160 fixed gives 288, 87 - ok now
Cbc0038I Full problem 1394 rows 493 columns, reduced to 98 rows 36 columns
Cbc0038I Mini branch and bound did not improve solution (1.70 seconds)
Cbc0038I After 1.70 seconds - Feasibility pump exiting with objective of 284 - took 1.46 seconds
Cbc0012I Integer solution of 284 found by feasibility pump after 0 iterations and 0 nodes (1.70 seconds)
Cbc0038I Full problem 1394 rows 493 columns, reduced to 1018 rows 311 columns - 151 fixed gives 14, 6 - ok now
Cbc0031I 19 added rows had average density of 2.3684211
Cbc0013I At root node, 200 cuts changed objective from 239.71824 to 283 in 2 passes
Cbc0014I Cut generator 0 (Probing) - 205 row cuts average 2.1 elements, 23 column cuts (23 active)  in 0.008 seconds - new frequency is 1
Cbc0014I Cut generator 1 (Gomory) - 12 row cuts average 3.3 elements, 0 column cuts (0 active)  in 0.009 seconds - new frequency is 1
Cbc0014I Cut generator 2 (Knapsack) - 9 row cuts average 5.7 elements, 0 column cuts (0 active)  in 0.002 seconds - new frequency is 1
Cbc0014I Cut generator 3 (Clique) - 0 row cuts average 0.0 elements, 0 column cuts (0 active)  in 0.001 seconds - new frequency is -100
Cbc0014I Cut generator 4 (MixedIntegerRounding2) - 0 row cuts average 0.0 elements, 0 column cuts (0 active)  in 0.001 seconds - new frequency is -100
Cbc0014I Cut generator 5 (FlowCover) - 0 row cuts average 0.0 elements, 0 column cuts (0 active)  in 0.001 seconds - new frequency is -100
Cbc0014I Cut generator 6 (TwoMirCuts) - 109 row cuts average 194.6 elements, 0 column cuts (0 active)  in 0.093 seconds - new frequency is -100
Cbc0014I Cut generator 7 (ZeroHalf) - 11 row cuts average 17.2 elements, 0 column cuts (0 active)  in 0.011 seconds - new frequency is 1
Cbc0001I Search completed - best objective 284, took 3443 iterations and 0 nodes (2.40 seconds)
Cbc0035I Maximum depth 0, 0 variables fixed on reduced cost
Cuts at root node changed objective from 239.718 to 283
Probing was tried 2 times and created 228 cuts of which 0 were active after adding rounds of cuts (0.008 seconds)
Gomory was tried 2 times and created 12 cuts of which 0 were active after adding rounds of cuts (0.009 seconds)
Knapsack was tried 2 times and created 9 cuts of which 0 were active after adding rounds of cuts (0.002 seconds)
Clique was tried 2 times and created 0 cuts of which 0 were active after adding rounds of cuts (0.001 seconds)
MixedIntegerRounding2 was tried 2 times and created 0 cuts of which 0 were active after adding rounds of cuts (0.001 seconds)
FlowCover was tried 2 times and created 0 cuts of which 0 were active after adding rounds of cuts (0.001 seconds)
TwoMirCuts was tried 2 times and created 109 cuts of which 0 were active after adding rounds of cuts (0.093 seconds)
ZeroHalf was tried 2 times and created 11 cuts of which 0 were active after adding rounds of cuts (0.011 seconds)

Result - Optimal solution found

Objective value:                284.00000000
Enumerated nodes:               0
Total iterations:               3443
Time (CPU seconds):             2.43
Time (Wallclock seconds):       2.45

Total time (CPU seconds):       2.43   (Wallclock seconds):       2.46

